(set-logic ALL)
(declare-const k Int)
(declare-fun s () (_ BitVec k))
(declare-fun t () (_ BitVec k))
(assert (distinct (bvmul (bvshl s s) (bvand t (_ bv1 k))) (bvmul s (bvshl (bvand t (_ bv1 k)) s))))
(check-sat)
